(declare-const |K:165:166:171:270:450| Int)
(declare-const |main____CPAchecker_TMP_3':226:255:269:287:467| Int)
(declare-const main____CPAchecker_TMP_3 Int)
(declare-const |__VERIFIER_assert__cond___16':155:168:173:272:452| Int)
(declare-const |__VERIFIER_assert__cond___15':154:169:174:273:453| Int)
(declare-const |main__cp':152:170:175:274:454| Int)
(declare-const havoc Int)
(declare-const __VERIFIER_assert__cond___11 Int)
(declare-const |havoc:12:62:258:276:456| Int)
(declare-const |__VERIFIER_assert__cond___9':224:247:261:279:459| Int)
(declare-const |K:245:246:260:278:458| Int)
(declare-const |__VERIFIER_assert__cond___13':229:252:266:284:464| Int)
(declare-const |havoc:21:63:259:277:457| Int)
(declare-const |main____CPAchecker_TMP_1':153:167:172:271:451| Int)
(declare-const |__VERIFIER_assert__cond___10':225:249:263:281:461| Int)
(declare-const __VERIFIER_assert__cond___15 Int)
(declare-const __VERIFIER_assert__cond___16 Int)
(declare-const __VERIFIER_assert__cond___12 Int)
(declare-const main____CPAchecker_TMP_1 Int)
(declare-const |havoc:9:61:176:449| Int)
(declare-const |havoc:1| Int)
(declare-const |main__cp':152:248:262:280:460| Int)
(declare-const __VERIFIER_assert__cond___13 Int)
(declare-const |havoc:2| Int)
(declare-const |phi_main____CPAchecker_TMP_1:256:257:275:455| Int)
(declare-const |main__c':223:250:264:282:462| Int)
(declare-const __VERIFIER_assert__cond___10 Int)
(declare-const |__VERIFIER_assert__cond___11':227:254:268:286:466| Int)
(declare-const __VERIFIER_assert__cond___9 Int)
(declare-const __VERIFIER_assert__cond___14 Int)
(declare-const |__VERIFIER_assert__cond___14':230:251:265:283:463| Int)
(declare-const |__VERIFIER_assert__cond___12':228:253:267:285:465| Int)
(assert (and (<= (+ havoc -1000000) 0) (<= (+ (- havoc) -1000000) 0)
               (<= (+ |havoc:1| -1000000) 0)
               (<= (+ (- |havoc:1|) -1000000) 0)
               (<= (+ |havoc:2| -1000000) 0)
               (<= (+ (- |havoc:2|) -1000000) 0) (< (- havoc) 0)
               (< (- |havoc:1|) 0) (<= (- |havoc:2|) 0) (not (= |havoc:2| 0))
               (<= (+ |havoc:2| (- havoc) 1) 0)
               (not (= (ite (< (+ |havoc:2| (- havoc) -1) 0) 1 0) 0))
               (not (= (ite (<= (+ (- |havoc:2|) 1) 0) 1 0) 0))
               (not (= |havoc:9:61:176:449| 0))
               (not (= (ite (< (+ |havoc:2| (- havoc)) 0) 1 0) 0))
               (not (= (ite (<= (- |havoc:2|) 0) 1 0) 0))
               (or (not (and (<= (- |K:165:166:171:270:450|) 0)
                               (<= |K:165:166:171:270:450| 0)))
                     (= (+ (- main____CPAchecker_TMP_1)
                             |main____CPAchecker_TMP_1':153:167:172:271:451|) 0))
               (or (not (<= (+ (- |K:165:166:171:270:450|) 1) 0))
                     (= |main____CPAchecker_TMP_1':153:167:172:271:451| 0))
               (or (not (and (<= (- |K:165:166:171:270:450|) 0)
                               (<= |K:165:166:171:270:450| 0)))
                     (= (+ (- __VERIFIER_assert__cond___16)
                             |__VERIFIER_assert__cond___16':155:168:173:272:452|) 0))
               (or (not (<= (+ (- |K:165:166:171:270:450|) 1) 0))
                     (= (+ |__VERIFIER_assert__cond___16':155:168:173:272:452|
                             -1) 0))
               (or (not (and (<= (- |K:165:166:171:270:450|) 0)
                               (<= |K:165:166:171:270:450| 0)))
                     (= (+ (- __VERIFIER_assert__cond___15)
                             |__VERIFIER_assert__cond___15':154:169:174:273:453|) 0))
               (or (not (<= (+ (- |K:165:166:171:270:450|) 1) 0))
                     (= (+ |__VERIFIER_assert__cond___15':154:169:174:273:453|
                             -1) 0))
               (or (not (<= (- |K:165:166:171:270:450|) 0))
                     (= (+ |main__cp':152:170:175:274:454|
                             (- |K:165:166:171:270:450|) (- |havoc:2|)) 0))
               (or (and (= |K:165:166:171:270:450| 0)
                          (= (+ __VERIFIER_assert__cond___16
                                  (- |__VERIFIER_assert__cond___16':155:168:173:272:452|)) 0)
                          (= (+ __VERIFIER_assert__cond___15
                                  (- |__VERIFIER_assert__cond___15':154:169:174:273:453|)) 0)
                          (= (+ main____CPAchecker_TMP_1
                                  (- |main____CPAchecker_TMP_1':153:167:172:271:451|)) 0)
                          (= (+ (- |main__cp':152:170:175:274:454|) |havoc:2|) 0))
                     (and (<= (+ (- |K:165:166:171:270:450|) 1) 0)
                            (<= (+ |havoc:2| (- havoc) 2) 0)
                            (<= (+ (- |havoc:2|) 1) 0)
                            (= (+ |__VERIFIER_assert__cond___16':155:168:173:272:452|
                                    -1) 0)
                            (= (+ |__VERIFIER_assert__cond___15':154:169:174:273:453|
                                    -1) 0)
                            (= |main____CPAchecker_TMP_1':153:167:172:271:451| 0)
                            (<= (+ |main__cp':152:170:175:274:454| (- 
                                     havoc) 1) 0)
                            (<= (+ (- |main__cp':152:170:175:274:454|) 2) 0)))
               (<= (- |K:165:166:171:270:450|) 0) (< (- havoc) 0)
               (< (- |main__cp':152:170:175:274:454|) 0)
               (or (and (<= (+ (- |main__cp':152:170:175:274:454|) havoc -1) 0)
                          (<= (+ |main__cp':152:170:175:274:454| (- havoc) 1) 0)
                          (= (+ (- |phi_main____CPAchecker_TMP_1:256:257:275:455|)
                                  |main____CPAchecker_TMP_1':153:167:172:271:451|) 0))
                     (and (or (< (+ |main__cp':152:170:175:274:454| (- 
                                      havoc) 1) 0)
                                (< (+ (- |main__cp':152:170:175:274:454|)
                                        havoc -1) 0))
                            (not (= |havoc:12:62:258:276:456| 0))
                            (= (+ |havoc:12:62:258:276:456|
                                    (- |phi_main____CPAchecker_TMP_1:256:257:275:455|)) 0)))
               (not (= (ite (< (+ |main__cp':152:170:175:274:454| (- havoc)) 0)
                            1 0) 0))
               (not (= (ite (<= (- |main__cp':152:170:175:274:454|) 0) 1 0) 0))
               (not (= (+ |main__cp':152:170:175:274:454| (- havoc) 1) 0))
               (not (= (ite (< (+ |main__cp':152:170:175:274:454| (- havoc) 1) 0)
                            1 0) 0))
               (not (= (ite (<= (+ (- |main__cp':152:170:175:274:454|) -1) 0)
                            1 0) 0))
               (not (= (+ |main__cp':152:170:175:274:454| (- havoc) 2) 0))
               (not (= |havoc:21:63:259:277:457| 0))
               (not (= (ite (< (+ |main__cp':152:170:175:274:454| (- havoc) 1) 0)
                            1 0) 0))
               (not (= (ite (<= (+ (- |main__cp':152:170:175:274:454|) -1) 0)
                            1 0) 0))
               (or (not (and (<= (- |K:245:246:260:278:458|) 0)
                               (<= |K:245:246:260:278:458| 0)))
                     (= (+ (- __VERIFIER_assert__cond___9)
                             |__VERIFIER_assert__cond___9':224:247:261:279:459|) 0))
               (or (not (<= (+ (- |K:245:246:260:278:458|) 1) 0))
                     (= (+ |__VERIFIER_assert__cond___9':224:247:261:279:459|
                             -1) 0))
               (or (not (<= (- |K:245:246:260:278:458|) 0))
                     (= (+ |main__cp':152:248:262:280:460|
                             (- |K:245:246:260:278:458|)
                             (- |main__cp':152:170:175:274:454|) -1) 0))
               (or (not (and (<= (- |K:245:246:260:278:458|) 0)
                               (<= |K:245:246:260:278:458| 0)))
                     (= (+ (- __VERIFIER_assert__cond___10)
                             |__VERIFIER_assert__cond___10':225:249:263:281:461|) 0))
               (or (not (<= (+ (- |K:245:246:260:278:458|) 1) 0))
                     (= (+ |__VERIFIER_assert__cond___10':225:249:263:281:461|
                             -1) 0))
               (or (not (<= (- |K:245:246:260:278:458|) 0))
                     (<= (+ |main__c':223:250:264:282:462|
                              (- |K:245:246:260:278:458|)) 0))
               (or (not (<= (- |K:245:246:260:278:458|) 0))
                     (<= (- |main__c':223:250:264:282:462|) 0))
               (or (and (= |K:245:246:260:278:458| 0)
                          (= (+ (- |__VERIFIER_assert__cond___14':230:251:265:283:463|)
                                  __VERIFIER_assert__cond___14) 0)
                          (= (+ (- |__VERIFIER_assert__cond___13':229:252:266:284:464|)
                                  __VERIFIER_assert__cond___13) 0)
                          (= (+ (- |__VERIFIER_assert__cond___12':228:253:267:285:465|)
                                  __VERIFIER_assert__cond___12) 0)
                          (= (+ (- |__VERIFIER_assert__cond___11':227:254:268:286:466|)
                                  __VERIFIER_assert__cond___11) 0)
                          (= (+ (- |main____CPAchecker_TMP_3':226:255:269:287:467|)
                                  main____CPAchecker_TMP_3) 0)
                          (= (+ __VERIFIER_assert__cond___10
                                  (- |__VERIFIER_assert__cond___10':225:249:263:281:461|)) 0)
                          (= (+ __VERIFIER_assert__cond___9
                                  (- |__VERIFIER_assert__cond___9':224:247:261:279:459|)) 0)
                          (= (- |main__c':223:250:264:282:462|) 0)
                          (= (+ (- |main__cp':152:248:262:280:460|)
                                  |main__cp':152:170:175:274:454| 1) 0))
                     (and (<= (+ (- |K:245:246:260:278:458|) 1) 0)
                            (<= (+ |main__cp':152:170:175:274:454| (- 
                                     havoc) 3) 0) (<= (+ (- |havoc:1|) 2) 0)
                            (<= (- |main__cp':152:170:175:274:454|) 0)
                            (= (+ |__VERIFIER_assert__cond___10':225:249:263:281:461|
                                    -1) 0)
                            (= (+ |__VERIFIER_assert__cond___9':224:247:261:279:459|
                                    -1) 0)
                            (<= (+ |main__cp':152:248:262:280:460| (- 
                                     havoc) 1) 0)
                            (<= (+ |main__c':223:250:264:282:462|
                                     (- |havoc:1|) 1) 0)
                            (<= (+ (- |havoc:1|) 2) 0)
                            (<= (- |main__c':223:250:264:282:462|) 0)
                            (<= (+ (- |main__cp':152:248:262:280:460|) 2) 0)))
               (<= (- |K:245:246:260:278:458|) 0) (< (- |havoc:1|) 0)
               (<= (- |main__c':223:250:264:282:462|) 0) (< (- havoc) 0)
               (< (- |main__cp':152:248:262:280:460|) 0)
               (or (< (+ |main__cp':152:248:262:280:460| (- havoc) 1) 0)
                     (< (+ (- |main__cp':152:248:262:280:460|) havoc -1) 0))
               (< (+ |main__c':223:250:264:282:462| (- |havoc:1|) 1) 0)
               (not (= (ite (< (+ |main__cp':152:248:262:280:460| (- havoc)) 0)
                            1 0) 0))
               (= (ite (<= (- |main__cp':152:248:262:280:460|) 0) 1 0) 0)))
(check-sat)
